/*********************************************
 * OPL 12.6.0.0 Data
 * Author: Adrian Rodriguez Bazaga, Pau Rodriguez Esmerats
 * Creation Date: 06/12/2017 at 23:04:56
 *********************************************/

nNurses=116;
maxConsec=2;
maxPresence=7;
maxHours=5;
minHours=1;
hours=24;
demand= [18 16 23 27 16 23 27 16 17 11 2 3 2 4 5 4 3 2 3 1 19 33 17 24  ];
